17	4
13	12	15	13	
0	0	0	0	0	3	2	3	4	
3	3	6	0	7	3	5	6	7	
5	8	6	0	2	3	13	16	17	
8	10	0	10	3	3	8	10	17	
5	0	6	6	0	3	9	11	12	
75	0	1	4	1	3	8	17	17	
125	7	7	7	10	3	9	14	15	
75	9	3	9	3	2	11	17	
250	0	1	7	2	3	17	17	17	
150	0	7	5	2	3	12	15	17	
175	6	1	2	6	3	13	14	15	
200	3	3	4	0	3	16	17	17	
7	5	7	5	7	2	17	17	
1	5	2	0	2	3	17	17	17	
8	0	0	1	8	3	17	17	17	
4	0	9	0	2	2	17	17	
0	0	0	0	0	0	
